\* P_Median *\
Minimize
OBJ: 3384.45689518 광천동_금호동 + 2777.05799038 광천동_내방동 + 2144.88003962 광천동_덕흥동
 + 1219.9374642 광천동_서구양동 + 3384.45689518 금호동_광천동 + 5880.4225955 금호동_내방동
 + 2144.30597468 금호동_덕흥동 + 2557.30507963 금호동_서구양동 + 2777.05799038 내방동_광천동
 + 5880.4225955 내방동_금호동 + 3978.91567898 내방동_덕흥동 + 3325.46741102 내방동_서구양동
 + 2144.88003962 덕흥동_광천동 + 2144.30597468 덕흥동_금호동 + 3978.91567898 덕흥동_내방동
 + 925.629677048 덕흥동_서구양동 + 1219.93746421 서구양동_광천동 + 2557.30507963 서구양동_금호동
 + 3325.46741102 서구양동_내방동 + 925.629677049 서구양동_덕흥동
Subject To
_C1: 광천동_광천동 + 금호동_금호동 + 내방동_내방동 + 덕흥동_덕흥동 + 서구양동_서구양동 = 1
_C10: 광천동_서구양동 - 서구양동_서구양동 <= 0
_C11: 광천동_금호동 - 금호동_금호동 <= 0
_C12: - 광천동_광천동 + 덕흥동_광천동 <= 0
_C13: 0 덕흥동_덕흥동 <= 0
_C14: - 내방동_내방동 + 덕흥동_내방동 <= 0
_C15: 덕흥동_서구양동 - 서구양동_서구양동 <= 0
_C16: - 금호동_금호동 + 덕흥동_금호동 <= 0
_C17: - 광천동_광천동 + 내방동_광천동 <= 0
_C18: 내방동_덕흥동 - 덕흥동_덕흥동 <= 0
_C19: 0 내방동_내방동 <= 0
_C2: 광천동_광천동 + 광천동_금호동 + 광천동_내방동 + 광천동_덕흥동 + 광천동_서구양동 = 1
_C20: 내방동_서구양동 - 서구양동_서구양동 <= 0
_C21: - 금호동_금호동 + 내방동_금호동 <= 0
_C22: - 광천동_광천동 + 서구양동_광천동 <= 0
_C23: - 덕흥동_덕흥동 + 서구양동_덕흥동 <= 0
_C24: - 내방동_내방동 + 서구양동_내방동 <= 0
_C25: 0 서구양동_서구양동 <= 0
_C26: - 금호동_금호동 + 서구양동_금호동 <= 0
_C27: - 광천동_광천동 + 금호동_광천동 <= 0
_C28: 금호동_덕흥동 - 덕흥동_덕흥동 <= 0
_C29: 금호동_내방동 - 내방동_내방동 <= 0
_C3: 덕흥동_광천동 + 덕흥동_금호동 + 덕흥동_내방동 + 덕흥동_덕흥동 + 덕흥동_서구양동 = 1
_C30: 금호동_서구양동 - 서구양동_서구양동 <= 0
_C31: 0 금호동_금호동 <= 0
_C4: 내방동_광천동 + 내방동_금호동 + 내방동_내방동 + 내방동_덕흥동 + 내방동_서구양동 = 1
_C5: 서구양동_광천동 + 서구양동_금호동 + 서구양동_내방동 + 서구양동_덕흥동 + 서구양동_서구양동 = 1
_C6: 금호동_광천동 + 금호동_금호동 + 금호동_내방동 + 금호동_덕흥동 + 금호동_서구양동 = 1
_C7: 0 광천동_광천동 <= 0
_C8: 광천동_덕흥동 - 덕흥동_덕흥동 <= 0
_C9: 광천동_내방동 - 내방동_내방동 <= 0
Binaries
광천동_광천동
광천동_금호동
광천동_내방동
광천동_덕흥동
광천동_서구양동
금호동_광천동
금호동_금호동
금호동_내방동
금호동_덕흥동
금호동_서구양동
내방동_광천동
내방동_금호동
내방동_내방동
내방동_덕흥동
내방동_서구양동
덕흥동_광천동
덕흥동_금호동
덕흥동_내방동
덕흥동_덕흥동
덕흥동_서구양동
서구양동_광천동
서구양동_금호동
서구양동_내방동
서구양동_덕흥동
서구양동_서구양동
End
